1. Run MD
2. ######################### lammps select new clusters
units           metal
atom_style	atomic
boundary        p p p
# read data
read_data   GB.data
# ----------------------------- Potential 
pair_style       mlip load_from=curr.almtp extrapolation_control=true extrapolation_control:threshold_break=1000000000 extrapolation_control:threshold_save=2.0 extrapolation_control:save_extrapolative_to=preselected.cfg
pair_coeff * *
mass            1 58
neighbor	0.5 bin
neigh_modify    every 1 delay 5 check yes
thermo_style custom step temp pe press pxx pyy pzz pxy pxz pyz lx ly lz vol
thermo		1000
fix 1 all nve
run 0
#########################
# calculate grade for a large structure
srun /home/fshuang/Tools/mlip-3/bin/mlp calculate_grade basic-cluster-mtp3.almtp 1.cfg 1-grade.cfg
# select-add
3. mpirun -np 1 /scratch1/08271/fshuang/Tools/mlip-3/bin/mlp select_add curr.almtp train.cfg preselected.cfg selected.cfg
4. mpirun -np 1 /scratch1/08271/fshuang/Tools/mlip-3/bin/mlp cut_extrapolative_nbh selected.cfg nbh.cfg --cutoff=8 --no_save_additional_atoms
5. mpirun -np 1 /scratch1/08271/fshuang/Tools/mlip-3/bin/mlp convert nbh.cfg outmodel --output_format=poscar

# 
